8862
8912
8956
9023
9095
9142
9171
9201
9225
9233
9240
9240
9240
9240
9240
9240
9240
9240
9241
9241
9242
9243
9244
9245
9248
9249
9249
9249
9249
9249
9249
9249
9249
9249
9249
9249
9249
9249
9249
9249
9249
9249
9249
9249
9249
9249
9249
9249
9249
9249
9249
9249
9249
9249
9249
9249
9249
9249
9249
9249
9249
9249
9249
9249
9249
9250
9250
9251
9252
9252
9252
9252
9252
9252
9252
9252
9252
9252
9252
9252
9252
9252
9252
9252
9252
9252
9252
9252
9252
9252
9252
9252
9252
9252
9252
9252
9252
9252
9252
